<number of tasks>
89

<cycle time>
103

<task times>
1 28
2 17
3 7
4 10
5 12
6 16
7 13
8 8
9 13
10 24
11 16
12 24
13 12
14 20
15 22
16 22
17 22
18 47
19 6
20 12
21 6
22 22
23 7
24 14
25 68
26 15
27 8
28 74
29 32
30 11
31 18
32 15
33 42
34 27
35 38
36 38
37 26
38 35
39 31
40 8
41 14
42 8
43 8
44 8
45 17
46 7
47 19
48 12
49 24
50 26
51 22
52 14
53 27
54 60
55 4
56 2
57 1
58 9
59 5
60 6
61 7
62 12
63 2
64 11
65 14
66 6
67 21
68 14
69 1
70 6
71 21
72 11
73 14
74 28
75 12
76 11
77 30
78 22
79 14
80 31
81 18
82 16
83 7
84 38
85 8
86 31
87 29
88 12
89 18

<precedence relations>
1,2
2,3
3,4
4,5
4,6
4,7
4,8
4,9
5,10
6,11
7,12
8,18
9,18
10,14
11,12
12,13
13,14
14,15
14,16
15,17
16,54
17,18
18,19
18,20
19,22
20,21
20,28
21,54
22,23
23,24
24,25
25,26
25,27
25,29
26,37
27,33
28,29
29,31
30,54
31,32
32,33
33,34
34,35
35,36
35,37
36,38
37,38
38,39
39,40
39,41
39,42
39,43
40,44
41,53
42,53
43,45
44,52
45,46
46,47
47,48
47,49
49,50
50,51
51,52
52,53
53,68
53,69
53,70
53,71
54,55
55,56
56,57
57,58
57,59
57,60
57,61
57,62
57,63
57,64
57,65
57,66
58,67
59,67
60,67
61,67
62,67
63,67
64,67
65,67
66,67
67,73
68,72
69,72
70,72
71,73
72,78
72,80
73,74
74,75
74,76
75,77
76,81
77,78
78,79
79,81
80,81
81,82
81,84
81,85
82,83
83,86
84,86
85,86
86,87
87,88
87,89

<setup times forward>
1,30:2
2,30:2
3,30:2
4,5:5
4,7:5
4,9:5
4,30:2
5,6:5
5,8:5
5,11:5
5,30:7
6,5:5
6,7:5
6,9:5
6,10:5
6,30:2
7,6:5
7,8:5
7,11:5
7,30:7
8,5:5
8,7:5
8,9:5
8,10:5
8,12:5
8,13:5
8,14:2
8,15:2
8,16:2
8,17:2
8,18:2
8,30:2
9,6:5
9,8:5
9,11:5
9,14:7
9,15:7
9,16:7
9,17:7
9,18:3
9,30:7
10,6:5
10,8:5
10,11:5
10,14:7
10,30:7
11,5:5
11,7:5
11,9:5
11,10:5
11,12:5
11,30:2
12,8:5
12,30:7
13,8:5
13,14:7
13,30:7
14,8:2
14,9:7
15,8:2
15,9:7
16,8:2
16,9:7
16,18:4
16,19:4
16,20:4
16,21:4
16,22:4
16,23:4
16,24:3
16,25:3
16,26:1
16,27:3
16,28:1
16,29:2
16,31:2
16,32:2
16,33:2
16,34:5
16,35:5
16,36:5
16,40:1
16,41:1
16,42:1
16,44:1
16,45:4
16,46:4
16,47:4
16,48:4
16,49:4
16,50:4
16,51:4
16,52:4
16,53:4
16,54:2
16,68:6
16,69:6
16,70:6
16,71:6
16,72:6
16,80:6
17,8:2
17,9:7
17,18:4
18,16:4
18,30:4
19,16:4
19,28:5
19,30:4
19,54:6
19,55:8
19,56:8
19,57:8
19,58:3
19,59:3
19,60:3
19,62:3
19,63:8
19,64:3
19,65:3
19,66:3
20,16:4
20,24:1
20,25:1
20,26:5
20,27:1
20,28:5
20,30:4
21,16:4
21,24:1
21,25:1
21,26:5
21,27:1
21,28:5
21,29:2
21,30:4
21,31:2
21,32:2
21,33:6
21,34:1
21,35:1
21,36:1
21,37:4
21,38:4
21,39:4
21,40:3
21,41:3
21,42:3
21,43:4
21,44:3
21,45:8
21,46:8
21,47:8
21,49:8
21,50:8
21,54:6
21,68:2
21,69:2
21,70:2
21,71:2
21,72:2
21,80:2
22,16:4
22,28:5
22,30:4
22,54:6
22,55:8
22,56:8
22,57:8
22,58:3
22,59:3
22,60:3
22,62:3
22,63:8
22,64:3
22,65:3
22,66:3
23,16:4
23,24:1
23,28:5
23,30:4
23,54:6
23,55:8
23,56:8
23,57:8
23,58:3
23,59:3
23,60:3
23,62:3
23,63:8
23,64:3
23,65:3
23,66:3
24,16:3
24,20:1
24,21:1
24,28:4
24,30:3
24,54:5
24,55:7
24,56:7
24,57:7
24,58:2
24,59:2
24,60:2
24,61:1
24,62:2
24,63:7
24,64:2
24,65:2
24,66:2
24,67:1
25,16:3
25,20:1
25,21:1
25,26:4
25,28:4
25,29:1
25,30:3
25,54:5
25,55:7
25,56:7
25,57:7
25,58:2
25,59:2
25,60:2
25,61:1
25,62:2
25,63:7
25,64:2
25,65:2
25,66:2
25,67:1
26,16:1
26,20:5
26,21:5
26,27:4
26,29:3
26,30:1
26,31:3
26,32:3
26,33:1
26,34:6
26,35:6
26,36:6
26,37:1
26,54:1
26,55:3
26,56:3
26,57:3
26,58:2
26,59:2
26,60:2
26,61:5
26,62:2
26,63:3
26,64:2
26,65:2
26,66:2
26,67:5
27,16:3
27,20:1
27,21:1
27,26:4
27,28:4
27,29:1
27,30:3
27,31:1
27,32:1
27,33:5
27,54:5
27,55:7
27,56:7
27,57:7
27,58:2
27,59:2
27,60:2
27,61:1
27,62:2
27,63:7
27,64:2
27,65:2
27,66:2
27,67:1
28,16:1
28,19:5
28,21:5
28,22:5
28,23:5
28,24:4
28,25:4
28,27:4
28,29:3
28,30:1
28,54:1
28,55:3
28,56:3
28,57:3
28,58:2
28,59:2
28,60:2
28,61:5
28,62:2
28,63:3
28,64:2
28,65:2
28,66:2
28,67:5
29,16:2
29,21:2
29,26:3
29,27:1
29,30:2
29,54:4
29,55:6
29,56:6
29,57:6
29,58:1
29,59:1
29,60:1
29,61:2
29,62:1
29,63:6
29,64:1
29,65:1
29,66:1
29,67:2
30,1:2
30,2:2
30,3:2
30,4:2
30,5:7
30,6:2
30,7:7
30,8:2
30,9:7
30,10:7
30,11:2
30,12:7
30,13:7
30,18:4
30,19:4
30,20:4
30,21:4
30,22:4
30,23:4
30,24:3
30,25:3
30,26:1
30,27:3
30,28:1
30,29:2
30,31:2
30,32:2
30,33:2
30,34:5
30,35:5
30,36:5
30,40:1
30,41:1
30,42:1
30,44:1
30,45:4
30,46:4
30,47:4
30,48:4
30,49:4
30,50:4
30,51:4
30,52:4
30,53:4
30,54:2
30,68:6
30,69:6
30,70:6
30,71:6
30,72:6
30,80:6
31,16:2
31,21:2
31,26:3
31,27:1
31,30:2
31,54:4
31,55:6
31,56:6
31,57:6
31,58:1
31,59:1
31,60:1
31,61:2
31,62:1
31,63:6
31,64:1
31,65:1
31,66:1
31,67:2
32,16:2
32,21:2
32,26:3
32,27:1
32,30:2
32,33:4
32,54:4
32,55:6
32,56:6
32,57:6
32,58:1
32,59:1
32,60:1
32,61:2
32,62:1
32,63:6
32,64:1
32,65:1
32,66:1
32,67:2
33,16:2
33,21:6
33,26:1
33,30:2
33,34:7
33,55:2
33,56:2
33,57:2
33,58:3
33,59:3
33,60:3
33,61:6
33,62:3
33,63:2
33,64:3
33,65:3
33,66:3
33,67:6
34,16:5
34,21:1
34,26:6
34,30:5
34,54:7
34,55:9
34,56:9
34,57:9
34,58:4
34,59:4
34,60:4
34,61:1
34,62:4
34,63:9
34,64:4
34,65:4
34,66:4
34,67:1
35,16:5
35,21:1
35,26:6
35,30:5
35,37:5
35,54:7
35,55:9
35,56:9
35,57:9
35,58:4
35,59:4
35,60:4
35,61:1
35,62:4
35,63:9
35,64:4
35,65:4
35,66:4
35,67:1
36,16:5
36,21:1
36,26:6
36,30:5
36,37:5
36,38:5
36,54:7
36,55:9
36,56:9
36,57:9
36,58:4
36,59:4
36,60:4
36,61:1
36,62:4
36,63:9
36,64:4
36,65:4
36,66:4
36,67:1
37,21:4
37,36:5
37,54:2
37,55:4
37,56:4
37,57:4
37,58:1
37,59:1
37,60:1
37,61:4
37,62:1
37,63:4
37,64:1
37,65:1
37,66:1
37,67:4
38,21:4
38,54:2
38,55:4
38,56:4
38,57:4
38,58:1
38,59:1
38,60:1
38,61:4
38,62:1
38,63:4
38,64:1
38,65:1
38,66:1
38,67:4
39,21:4
39,40:1
39,41:1
39,42:1
39,54:2
39,55:4
39,56:4
39,57:4
39,58:1
39,59:1
39,60:1
39,61:4
39,62:1
39,63:4
39,64:1
39,65:1
39,66:1
39,67:4
40,16:1
40,21:3
40,30:1
40,43:1
40,45:5
40,46:5
40,47:5
40,48:3
40,49:5
40,50:5
40,51:3
40,54:3
40,55:5
40,56:5
40,57:5
40,61:3
40,63:5
40,67:3
41,16:1
41,21:3
41,30:1
41,43:1
41,45:5
41,46:5
41,47:5
41,48:3
41,49:5
41,50:5
41,51:3
41,52:3
41,53:3
41,54:3
41,55:5
41,56:5
41,57:5
41,61:3
41,63:5
41,67:3
42,16:1
42,21:3
42,30:1
42,43:1
42,45:5
42,46:5
42,47:5
42,48:3
42,49:5
42,50:5
42,51:3
42,52:3
42,53:3
42,54:3
42,55:5
42,56:5
42,57:5
42,61:3
42,63:5
42,67:3
43,21:4
43,40:1
43,41:1
43,42:1
43,44:1
43,45:4
43,54:2
43,55:4
43,56:4
43,57:4
43,58:1
43,59:1
43,60:1
43,61:4
43,62:1
43,63:4
43,64:1
43,65:1
43,66:1
43,67:4
44,16:1
44,21:3
44,30:1
44,43:1
44,45:5
44,46:5
44,47:5
44,48:3
44,49:5
44,50:5
44,51:3
44,52:3
44,54:3
44,55:5
44,56:5
44,57:5
44,61:3
44,63:5
44,67:3
45,16:4
45,21:8
45,30:4
45,40:5
45,41:5
45,42:5
45,44:5
45,54:2
45,58:5
45,59:5
45,60:5
45,61:8
45,62:5
45,64:5
45,65:5
45,66:5
45,67:8
46,16:4
46,21:8
46,30:4
46,40:5
46,41:5
46,42:5
46,44:5
46,54:2
46,58:5
46,59:5
46,60:5
46,61:8
46,62:5
46,64:5
46,65:5
46,66:5
46,67:8
47,16:4
47,21:8
47,30:4
47,40:5
47,41:5
47,42:5
47,44:5
47,48:8
47,54:2
47,58:5
47,59:5
47,60:5
47,61:8
47,62:5
47,64:5
47,65:5
47,66:5
47,67:8
48,16:4
48,30:4
48,40:3
48,41:3
48,42:3
48,44:3
48,49:8
48,50:8
48,54:6
48,55:8
48,56:8
48,57:8
48,58:3
48,59:3
48,60:3
48,62:3
48,63:8
48,64:3
48,65:3
48,66:3
48,68:2
48,69:2
48,70:2
48,71:2
48,72:2
48,73:2
48,74:9
48,75:9
48,76:9
48,77:9
48,78:9
48,79:8
48,80:2
48,81:8
48,82:8
48,83:3
48,84:8
48,85:8
48,86:3
48,87:3
48,88:3
48,89:3
49,16:4
49,21:8
49,30:4
49,40:5
49,41:5
49,42:5
49,44:5
49,48:8
49,54:2
49,58:5
49,59:5
49,60:5
49,61:8
49,62:5
49,64:5
49,65:5
49,66:5
49,67:8
50,16:4
50,21:8
50,30:4
50,40:5
50,41:5
50,42:5
50,44:5
50,48:8
50,51:8
50,54:2
50,58:5
50,59:5
50,60:5
50,61:8
50,62:5
50,64:5
50,65:5
50,66:5
50,67:8
51,16:4
51,30:4
51,40:3
51,41:3
51,42:3
51,44:3
51,54:6
51,55:8
51,56:8
51,57:8
51,58:3
51,59:3
51,60:3
51,62:3
51,63:8
51,64:3
51,65:3
51,66:3
52,16:4
52,30:4
52,41:3
52,42:3
52,54:6
52,55:8
52,56:8
52,57:8
52,58:3
52,59:3
52,60:3
52,62:3
52,63:8
52,64:3
52,65:3
52,66:3
53,16:4
53,30:4
53,54:6
53,55:8
53,56:8
53,57:8
53,58:3
53,59:3
53,60:3
53,62:3
53,63:8
53,64:3
53,65:3
53,66:3
53,68:2
53,69:2
53,70:2
53,71:2
54,19:6
54,22:6
54,23:6
54,24:5
54,25:5
54,26:1
54,27:5
54,28:1
54,29:4
54,31:4
54,32:4
54,34:7
54,35:7
54,36:7
54,37:2
54,38:2
54,39:2
54,40:3
54,41:3
54,42:3
54,43:2
54,44:3
54,45:2
54,46:2
54,47:2
54,48:6
54,49:2
54,50:2
54,51:6
54,52:6
54,53:6
54,55:2
54,68:8
54,69:8
54,70:8
54,71:8
54,72:8
54,80:8
55,19:8
55,22:8
55,23:8
55,24:7
55,25:7
55,26:3
55,27:7
55,28:3
55,29:6
55,31:6
55,32:6
55,33:2
55,34:9
55,35:9
55,36:9
55,37:4
55,38:4
55,39:4
55,40:5
55,41:5
55,42:5
55,43:4
55,44:5
55,48:8
55,51:8
55,52:8
55,53:8
55,68:10
55,69:10
55,70:10
55,71:10
55,72:10
55,80:10
56,19:8
56,22:8
56,23:8
56,24:7
56,25:7
56,26:3
56,27:7
56,28:3
56,29:6
56,31:6
56,32:6
56,33:2
56,34:9
56,35:9
56,36:9
56,37:4
56,38:4
56,39:4
56,40:5
56,41:5
56,42:5
56,43:4
56,44:5
56,48:8
56,51:8
56,52:8
56,53:8
56,68:10
56,69:10
56,70:10
56,71:10
56,72:10
56,80:10
57,19:8
57,22:8
57,23:8
57,24:7
57,25:7
57,26:3
57,27:7
57,28:3
57,29:6
57,31:6
57,32:6
57,33:2
57,34:9
57,35:9
57,36:9
57,37:4
57,38:4
57,39:4
57,40:5
57,41:5
57,42:5
57,43:4
57,44:5
57,48:8
57,51:8
57,52:8
57,53:8
57,58:5
57,59:5
57,60:5
57,61:8
57,62:5
57,64:5
57,65:5
57,66:5
57,68:10
57,69:10
57,70:10
57,71:10
57,72:10
57,80:10
58,19:3
58,22:3
58,23:3
58,24:2
58,25:2
58,26:2
58,27:2
58,28:2
58,29:1
58,31:1
58,32:1
58,33:3
58,34:4
58,35:4
58,36:4
58,37:1
58,38:1
58,39:1
58,43:1
58,45:5
58,46:5
58,47:5
58,48:3
58,49:5
58,50:5
58,51:3
58,52:3
58,53:3
58,61:3
58,63:5
58,67:3
58,68:5
58,69:5
58,70:5
58,71:5
58,72:5
58,80:5
59,19:3
59,22:3
59,23:3
59,24:2
59,25:2
59,26:2
59,27:2
59,28:2
59,29:1
59,31:1
59,32:1
59,33:3
59,34:4
59,35:4
59,36:4
59,37:1
59,38:1
59,39:1
59,43:1
59,45:5
59,46:5
59,47:5
59,48:3
59,49:5
59,50:5
59,51:3
59,52:3
59,53:3
59,61:3
59,63:5
59,67:3
59,68:5
59,69:5
59,70:5
59,71:5
59,72:5
59,80:5
60,19:3
60,22:3
60,23:3
60,24:2
60,25:2
60,26:2
60,27:2
60,28:2
60,29:1
60,31:1
60,32:1
60,33:3
60,34:4
60,35:4
60,36:4
60,37:1
60,38:1
60,39:1
60,43:1
60,45:5
60,46:5
60,47:5
60,48:3
60,49:5
60,50:5
60,51:3
60,52:3
60,53:3
60,61:3
60,63:5
60,67:3
60,68:5
60,69:5
60,70:5
60,71:5
60,72:5
60,80:5
61,24:1
61,25:1
61,26:5
61,27:1
61,28:5
61,29:2
61,31:2
61,32:2
61,33:6
61,34:1
61,35:1
61,36:1
61,37:4
61,38:4
61,39:4
61,40:3
61,41:3
61,42:3
61,43:4
61,44:3
61,45:8
61,46:8
61,47:8
61,49:8
61,50:8
61,58:3
61,59:3
61,60:3
61,62:3
61,63:8
61,64:3
61,65:3
61,66:3
61,68:2
61,69:2
61,70:2
61,71:2
61,72:2
61,80:2
62,19:3
62,22:3
62,23:3
62,24:2
62,25:2
62,26:2
62,27:2
62,28:2
62,29:1
62,31:1
62,32:1
62,33:3
62,34:4
62,35:4
62,36:4
62,37:1
62,38:1
62,39:1
62,43:1
62,45:5
62,46:5
62,47:5
62,48:3
62,49:5
62,50:5
62,51:3
62,52:3
62,53:3
62,61:3
62,63:5
62,67:3
62,68:5
62,69:5
62,70:5
62,71:5
62,72:5
62,80:5
63,19:8
63,22:8
63,23:8
63,24:7
63,25:7
63,26:3
63,27:7
63,28:3
63,29:6
63,31:6
63,32:6
63,33:2
63,34:9
63,35:9
63,36:9
63,37:4
63,38:4
63,39:4
63,40:5
63,41:5
63,42:5
63,43:4
63,44:5
63,48:8
63,51:8
63,52:8
63,53:8
63,58:5
63,59:5
63,60:5
63,61:8
63,62:5
63,64:5
63,65:5
63,66:5
63,67:8
63,68:10
63,69:10
63,70:10
63,71:10
63,72:10
63,80:10
64,19:3
64,22:3
64,23:3
64,24:2
64,25:2
64,26:2
64,27:2
64,28:2
64,29:1
64,31:1
64,32:1
64,33:3
64,34:4
64,35:4
64,36:4
64,37:1
64,38:1
64,39:1
64,43:1
64,45:5
64,46:5
64,47:5
64,48:3
64,49:5
64,50:5
64,51:3
64,52:3
64,53:3
64,61:3
64,63:5
64,67:3
64,68:5
64,69:5
64,70:5
64,71:5
64,72:5
64,80:5
65,19:3
65,22:3
65,23:3
65,24:2
65,25:2
65,26:2
65,27:2
65,28:2
65,29:1
65,31:1
65,32:1
65,33:3
65,34:4
65,35:4
65,36:4
65,37:1
65,38:1
65,39:1
65,43:1
65,45:5
65,46:5
65,47:5
65,48:3
65,49:5
65,50:5
65,51:3
65,52:3
65,53:3
65,61:3
65,63:5
65,67:3
65,68:5
65,69:5
65,70:5
65,71:5
65,72:5
65,80:5
66,19:3
66,22:3
66,23:3
66,24:2
66,25:2
66,26:2
66,27:2
66,28:2
66,29:1
66,31:1
66,32:1
66,33:3
66,34:4
66,35:4
66,36:4
66,37:1
66,38:1
66,39:1
66,43:1
66,45:5
66,46:5
66,47:5
66,48:3
66,49:5
66,50:5
66,51:3
66,52:3
66,53:3
66,61:3
66,63:5
66,67:3
66,68:5
66,69:5
66,70:5
66,71:5
66,72:5
66,80:5
67,24:1
67,25:1
67,26:5
67,27:1
67,28:5
67,29:2
67,31:2
67,32:2
67,33:6
67,34:1
67,35:1
67,36:1
67,37:4
67,38:4
67,39:4
67,40:3
67,41:3
67,42:3
67,43:4
67,44:3
67,45:8
67,46:8
67,47:8
67,49:8
67,50:8
67,68:2
67,69:2
67,70:2
67,71:2
67,72:2
67,73:2
67,80:2
68,16:6
68,21:2
68,30:6
68,48:2
68,54:8
68,55:10
68,56:10
68,57:10
68,58:5
68,59:5
68,60:5
68,61:2
68,62:5
68,63:10
68,64:5
68,65:5
68,66:5
68,67:2
68,74:11
68,75:11
68,76:11
68,77:11
69,16:6
69,21:2
69,30:6
69,48:2
69,54:8
69,55:10
69,56:10
69,57:10
69,58:5
69,59:5
69,60:5
69,61:2
69,62:5
69,63:10
69,64:5
69,65:5
69,66:5
69,67:2
69,74:11
69,75:11
69,76:11
69,77:11
70,16:6
70,21:2
70,30:6
70,48:2
70,54:8
70,55:10
70,56:10
70,57:10
70,58:5
70,59:5
70,60:5
70,61:2
70,62:5
70,63:10
70,64:5
70,65:5
70,66:5
70,67:2
70,74:11
70,75:11
70,76:11
70,77:11
71,16:6
71,21:2
71,30:6
71,48:2
71,54:8
71,55:10
71,56:10
71,57:10
71,58:5
71,59:5
71,60:5
71,61:2
71,62:5
71,63:10
71,64:5
71,65:5
71,66:5
71,67:2
72,16:6
72,21:2
72,30:6
72,48:2
72,54:8
72,55:10
72,56:10
72,57:10
72,58:5
72,59:5
72,60:5
72,61:2
72,62:5
72,63:10
72,64:5
72,65:5
72,66:5
72,67:2
72,74:11
72,75:11
72,76:11
72,77:11
72,78:11
73,48:2
73,74:11
74,48:9
74,68:11
74,69:11
74,70:11
74,72:11
74,80:11
75,48:9
75,68:11
75,69:11
75,70:11
75,72:11
75,80:11
76,48:9
76,68:11
76,69:11
76,70:11
76,72:11
76,79:1
76,80:11
76,81:1
77,48:9
77,68:11
77,69:11
77,70:11
77,72:11
77,80:11
78,48:9
78,79:1
78,80:11
79,48:8
79,76:1
79,80:10
80,16:6
80,21:2
80,30:6
80,48:2
80,54:8
80,55:10
80,56:10
80,57:10
80,58:5
80,59:5
80,60:5
80,61:2
80,62:5
80,63:10
80,64:5
80,65:5
80,66:5
80,67:2
80,74:11
80,75:11
80,76:11
80,77:11
80,78:11
80,79:10
80,81:10
81,48:8
82,48:8
82,83:11
83,48:3
83,84:11
83,85:11
84,48:8
84,83:11
84,86:11
85,48:8
85,83:11
85,86:11
86,48:3
87,48:3
88,48:3
89,48:3

<setup times backward>
1,30:2
2,30:2
3,30:2
4,30:2
5,1:5
5,2:5
5,3:5
5,4:5
5,6:5
5,8:5
5,11:5
5,30:7
6,30:2
7,1:5
7,2:5
7,3:5
7,4:5
7,6:5
7,8:5
7,11:5
7,30:7
8,14:2
8,15:2
8,16:2
8,17:2
8,30:2
9,1:5
9,2:5
9,3:5
9,4:5
9,6:5
9,8:5
9,11:5
9,14:7
9,15:7
9,16:7
9,17:7
9,30:7
10,1:5
10,2:5
10,3:5
10,4:5
10,6:5
10,8:5
10,11:5
10,30:7
11,30:2
12,1:5
12,2:5
12,3:5
12,4:5
12,6:5
12,8:5
12,11:5
12,30:7
13,1:5
13,2:5
13,3:5
13,4:5
13,6:5
13,8:5
13,11:5
13,30:7
16,26:1
16,28:1
16,33:2
16,45:4
16,46:4
16,47:4
16,49:4
16,50:4
18,1:2
18,2:2
18,3:2
18,4:2
18,6:2
18,8:2
18,11:2
18,14:4
18,15:4
18,16:4
18,17:4
18,30:4
19,1:2
19,2:2
19,3:2
19,4:2
19,6:2
19,8:2
19,11:2
19,14:4
19,15:4
19,16:4
19,17:4
19,28:5
19,30:4
19,54:6
19,55:8
19,56:8
19,57:8
19,58:3
19,59:3
19,60:3
19,62:3
19,63:8
19,64:3
19,65:3
19,66:3
20,1:2
20,2:2
20,3:2
20,4:2
20,6:2
20,8:2
20,11:2
20,14:4
20,15:4
20,16:4
20,17:4
20,24:1
20,25:1
20,26:5
20,27:1
20,30:4
21,1:2
21,2:2
21,3:2
21,4:2
21,6:2
21,8:2
21,11:2
21,14:4
21,15:4
21,16:4
21,17:4
21,24:1
21,25:1
21,26:5
21,27:1
21,28:5
21,29:2
21,30:4
21,31:2
21,32:2
21,33:6
21,37:4
21,38:4
21,39:4
21,40:3
21,41:3
21,42:3
21,43:4
21,44:3
21,45:8
21,46:8
21,47:8
21,49:8
21,50:8
22,1:2
22,2:2
22,3:2
22,4:2
22,6:2
22,8:2
22,11:2
22,14:4
22,15:4
22,16:4
22,17:4
22,28:5
22,30:4
22,54:6
22,55:8
22,56:8
22,57:8
22,58:3
22,59:3
22,60:3
22,62:3
22,63:8
22,64:3
22,65:3
22,66:3
23,1:2
23,2:2
23,3:2
23,4:2
23,6:2
23,8:2
23,11:2
23,14:4
23,15:4
23,16:4
23,17:4
23,28:5
23,30:4
23,54:6
23,55:8
23,56:8
23,57:8
23,58:3
23,59:3
23,60:3
23,62:3
23,63:8
23,64:3
23,65:3
23,66:3
24,1:1
24,2:1
24,3:1
24,4:1
24,6:1
24,8:1
24,11:1
24,14:3
24,15:3
24,16:3
24,17:3
24,28:4
24,30:3
24,54:5
24,55:7
24,56:7
24,57:7
24,58:2
24,59:2
24,60:2
24,62:2
24,63:7
24,64:2
24,65:2
24,66:2
25,1:1
25,2:1
25,3:1
25,4:1
25,6:1
25,8:1
25,11:1
25,14:3
25,15:3
25,16:3
25,17:3
25,28:4
25,30:3
25,54:5
25,55:7
25,56:7
25,57:7
25,58:2
25,59:2
25,60:2
25,62:2
25,63:7
25,64:2
25,65:2
25,66:2
26,33:1
26,54:1
26,55:3
26,56:3
26,57:3
26,63:3
27,1:1
27,2:1
27,3:1
27,4:1
27,6:1
27,8:1
27,11:1
27,14:3
27,15:3
27,16:3
27,17:3
27,26:4
27,28:4
27,29:1
27,30:3
27,31:1
27,32:1
27,54:5
27,55:7
27,56:7
27,57:7
27,58:2
27,59:2
27,60:2
27,62:2
27,63:7
27,64:2
27,65:2
27,66:2
28,54:1
28,55:3
28,56:3
28,57:3
28,63:3
29,14:2
29,15:2
29,16:2
29,17:2
29,26:3
29,28:3
29,30:2
29,54:4
29,55:6
29,56:6
29,57:6
29,58:1
29,59:1
29,60:1
29,62:1
29,63:6
29,64:1
29,65:1
29,66:1
30,26:1
30,28:1
30,33:2
30,45:4
30,46:4
30,47:4
30,49:4
30,50:4
31,14:2
31,15:2
31,16:2
31,17:2
31,26:3
31,28:3
31,30:2
31,54:4
31,55:6
31,56:6
31,57:6
31,58:1
31,59:1
31,60:1
31,62:1
31,63:6
31,64:1
31,65:1
31,66:1
32,14:2
32,15:2
32,16:2
32,17:2
32,26:3
32,28:3
32,30:2
32,54:4
32,55:6
32,56:6
32,57:6
32,58:1
32,59:1
32,60:1
32,62:1
32,63:6
32,64:1
32,65:1
32,66:1
33,55:2
33,56:2
33,57:2
33,63:2
34,1:3
34,2:3
34,3:3
34,4:3
34,6:3
34,8:3
34,11:3
34,14:5
34,15:5
34,16:5
34,17:5
34,18:1
34,19:1
34,20:1
34,21:1
34,22:1
34,23:1
34,24:2
34,25:2
34,26:6
34,27:2
34,28:6
34,29:3
34,30:5
34,31:3
34,32:3
34,33:7
34,54:7
34,55:9
34,56:9
34,57:9
34,58:4
34,59:4
34,60:4
34,61:1
34,62:4
34,63:9
34,64:4
34,65:4
34,66:4
34,67:1
35,1:3
35,2:3
35,3:3
35,4:3
35,6:3
35,8:3
35,11:3
35,14:5
35,15:5
35,16:5
35,17:5
35,18:1
35,19:1
35,20:1
35,21:1
35,22:1
35,23:1
35,24:2
35,25:2
35,26:6
35,27:2
35,28:6
35,29:3
35,30:5
35,31:3
35,32:3
35,33:7
35,54:7
35,55:9
35,56:9
35,57:9
35,58:4
35,59:4
35,60:4
35,61:1
35,62:4
35,63:9
35,64:4
35,65:4
35,66:4
35,67:1
36,1:3
36,2:3
36,3:3
36,4:3
36,6:3
36,8:3
36,11:3
36,14:5
36,15:5
36,16:5
36,17:5
36,18:1
36,19:1
36,20:1
36,21:1
36,22:1
36,23:1
36,24:2
36,25:2
36,26:6
36,27:2
36,28:6
36,29:3
36,30:5
36,31:3
36,32:3
36,33:7
36,37:5
36,54:7
36,55:9
36,56:9
36,57:9
36,58:4
36,59:4
36,60:4
36,61:1
36,62:4
36,63:9
36,64:4
36,65:4
36,66:4
36,67:1
37,26:1
37,28:1
37,33:2
37,54:2
37,55:4
37,56:4
37,57:4
37,63:4
38,26:1
38,28:1
38,33:2
38,54:2
38,55:4
38,56:4
38,57:4
38,63:4
39,26:1
39,28:1
39,33:2
39,54:2
39,55:4
39,56:4
39,57:4
39,63:4
40,14:1
40,15:1
40,16:1
40,17:1
40,26:2
40,28:2
40,30:1
40,33:3
40,37:1
40,38:1
40,39:1
40,43:1
40,45:5
40,46:5
40,47:5
40,49:5
40,50:5
40,54:3
40,55:5
40,56:5
40,57:5
40,63:5
41,14:1
41,15:1
41,16:1
41,17:1
41,26:2
41,28:2
41,30:1
41,33:3
41,37:1
41,38:1
41,39:1
41,43:1
41,45:5
41,46:5
41,47:5
41,49:5
41,50:5
41,54:3
41,55:5
41,56:5
41,57:5
41,63:5
42,14:1
42,15:1
42,16:1
42,17:1
42,26:2
42,28:2
42,30:1
42,33:3
42,37:1
42,38:1
42,39:1
42,43:1
42,45:5
42,46:5
42,47:5
42,49:5
42,50:5
42,54:3
42,55:5
42,56:5
42,57:5
42,63:5
43,26:1
43,28:1
43,33:2
43,54:2
43,55:4
43,56:4
43,57:4
43,63:4
44,14:1
44,15:1
44,16:1
44,17:1
44,26:2
44,28:2
44,30:1
44,33:3
44,37:1
44,38:1
44,39:1
44,43:1
44,45:5
44,46:5
44,47:5
44,49:5
44,50:5
44,54:3
44,55:5
44,56:5
44,57:5
44,63:5
48,1:2
48,2:2
48,3:2
48,4:2
48,6:2
48,8:2
48,11:2
48,14:4
48,15:4
48,16:4
48,17:4
48,24:1
48,25:1
48,26:5
48,27:1
48,28:5
48,29:2
48,30:4
48,31:2
48,32:2
48,33:6
48,37:4
48,38:4
48,39:4
48,40:3
48,41:3
48,42:3
48,43:4
48,44:3
48,45:8
48,46:8
48,47:8
48,49:8
48,50:8
48,54:6
48,55:8
48,56:8
48,57:8
48,58:3
48,59:3
48,60:3
48,62:3
48,63:8
48,64:3
48,65:3
48,66:3
48,74:9
48,75:9
48,76:9
48,77:9
48,78:9
48,79:8
48,81:8
48,82:8
48,84:8
48,85:8
51,1:2
51,2:2
51,3:2
51,4:2
51,6:2
51,8:2
51,11:2
51,14:4
51,15:4
51,16:4
51,17:4
51,24:1
51,25:1
51,26:5
51,27:1
51,28:5
51,29:2
51,30:4
51,31:2
51,32:2
51,33:6
51,37:4
51,38:4
51,39:4
51,40:3
51,41:3
51,42:3
51,43:4
51,44:3
51,45:8
51,46:8
51,47:8
51,49:8
51,50:8
51,54:6
51,55:8
51,56:8
51,57:8
51,58:3
51,59:3
51,60:3
51,62:3
51,63:8
51,64:3
51,65:3
51,66:3
52,1:2
52,2:2
52,3:2
52,4:2
52,6:2
52,8:2
52,11:2
52,14:4
52,15:4
52,16:4
52,17:4
52,24:1
52,25:1
52,26:5
52,27:1
52,28:5
52,29:2
52,30:4
52,31:2
52,32:2
52,33:6
52,37:4
52,38:4
52,39:4
52,40:3
52,41:3
52,42:3
52,43:4
52,44:3
52,45:8
52,46:8
52,47:8
52,49:8
52,50:8
52,54:6
52,55:8
52,56:8
52,57:8
52,58:3
52,59:3
52,60:3
52,62:3
52,63:8
52,64:3
52,65:3
52,66:3
53,1:2
53,2:2
53,3:2
53,4:2
53,6:2
53,8:2
53,11:2
53,14:4
53,15:4
53,16:4
53,17:4
53,24:1
53,25:1
53,26:5
53,27:1
53,28:5
53,29:2
53,30:4
53,31:2
53,32:2
53,33:6
53,37:4
53,38:4
53,39:4
53,40:3
53,41:3
53,42:3
53,43:4
53,44:3
53,45:8
53,46:8
53,47:8
53,49:8
53,50:8
53,54:6
53,55:8
53,56:8
53,57:8
53,58:3
53,59:3
53,60:3
53,62:3
53,63:8
53,64:3
53,65:3
53,66:3
54,45:2
54,46:2
54,47:2
54,49:2
54,50:2
58,14:1
58,15:1
58,16:1
58,17:1
58,26:2
58,28:2
58,30:1
58,33:3
58,37:1
58,38:1
58,39:1
58,43:1
58,45:5
58,46:5
58,47:5
58,49:5
58,50:5
58,54:3
58,55:5
58,56:5
58,57:5
58,63:5
59,14:1
59,15:1
59,16:1
59,17:1
59,26:2
59,28:2
59,30:1
59,33:3
59,37:1
59,38:1
59,39:1
59,43:1
59,45:5
59,46:5
59,47:5
59,49:5
59,50:5
59,54:3
59,55:5
59,56:5
59,57:5
59,63:5
60,14:1
60,15:1
60,16:1
60,17:1
60,26:2
60,28:2
60,30:1
60,33:3
60,37:1
60,38:1
60,39:1
60,43:1
60,45:5
60,46:5
60,47:5
60,49:5
60,50:5
60,54:3
60,55:5
60,56:5
60,57:5
60,63:5
61,1:2
61,2:2
61,3:2
61,4:2
61,6:2
61,8:2
61,11:2
61,14:4
61,15:4
61,16:4
61,17:4
61,24:1
61,25:1
61,26:5
61,27:1
61,28:5
61,29:2
61,30:4
61,31:2
61,32:2
61,33:6
61,37:4
61,38:4
61,39:4
61,40:3
61,41:3
61,42:3
61,43:4
61,44:3
61,45:8
61,46:8
61,47:8
61,49:8
61,50:8
61,54:6
61,55:8
61,56:8
61,57:8
61,58:3
61,59:3
61,60:3
61,62:3
61,63:8
61,64:3
61,65:3
61,66:3
62,14:1
62,15:1
62,16:1
62,17:1
62,26:2
62,28:2
62,30:1
62,33:3
62,37:1
62,38:1
62,39:1
62,43:1
62,45:5
62,46:5
62,47:5
62,49:5
62,50:5
62,54:3
62,55:5
62,56:5
62,57:5
62,63:5
64,14:1
64,15:1
64,16:1
64,17:1
64,26:2
64,28:2
64,30:1
64,33:3
64,37:1
64,38:1
64,39:1
64,43:1
64,45:5
64,46:5
64,47:5
64,49:5
64,50:5
64,54:3
64,55:5
64,56:5
64,57:5
64,63:5
65,14:1
65,15:1
65,16:1
65,17:1
65,26:2
65,28:2
65,30:1
65,33:3
65,37:1
65,38:1
65,39:1
65,43:1
65,45:5
65,46:5
65,47:5
65,49:5
65,50:5
65,54:3
65,55:5
65,56:5
65,57:5
65,63:5
66,14:1
66,15:1
66,16:1
66,17:1
66,26:2
66,28:2
66,30:1
66,33:3
66,37:1
66,38:1
66,39:1
66,43:1
66,45:5
66,46:5
66,47:5
66,49:5
66,50:5
66,54:3
66,55:5
66,56:5
66,57:5
66,63:5
67,1:2
67,2:2
67,3:2
67,4:2
67,6:2
67,8:2
67,11:2
67,14:4
67,15:4
67,16:4
67,17:4
67,24:1
67,25:1
67,26:5
67,27:1
67,28:5
67,29:2
67,30:4
67,31:2
67,32:2
67,33:6
67,37:4
67,38:4
67,39:4
67,40:3
67,41:3
67,42:3
67,43:4
67,44:3
67,45:8
67,46:8
67,47:8
67,49:8
67,50:8
67,54:6
67,55:8
67,56:8
67,57:8
67,58:3
67,59:3
67,60:3
67,62:3
67,63:8
67,64:3
67,65:3
67,66:3
68,1:4
68,2:4
68,3:4
68,4:4
68,6:4
68,8:4
68,11:4
68,14:6
68,15:6
68,16:6
68,17:6
68,18:2
68,19:2
68,20:2
68,21:2
68,22:2
68,23:2
68,24:3
68,25:3
68,26:7
68,27:3
68,28:7
68,29:4
68,30:6
68,31:4
68,32:4
68,33:8
68,34:1
68,35:1
68,36:1
68,37:6
68,38:6
68,39:6
68,40:5
68,41:5
68,42:5
68,43:6
68,44:5
68,45:10
68,46:10
68,47:10
68,48:2
68,49:10
68,50:10
68,51:2
68,52:2
68,53:2
68,54:8
68,55:10
68,56:10
68,57:10
68,58:5
68,59:5
68,60:5
68,61:2
68,62:5
68,63:10
68,64:5
68,65:5
68,66:5
68,67:2
68,74:11
68,75:11
68,76:11
68,77:11
69,1:4
69,2:4
69,3:4
69,4:4
69,6:4
69,8:4
69,11:4
69,14:6
69,15:6
69,16:6
69,17:6
69,18:2
69,19:2
69,20:2
69,21:2
69,22:2
69,23:2
69,24:3
69,25:3
69,26:7
69,27:3
69,28:7
69,29:4
69,30:6
69,31:4
69,32:4
69,33:8
69,34:1
69,35:1
69,36:1
69,37:6
69,38:6
69,39:6
69,40:5
69,41:5
69,42:5
69,43:6
69,44:5
69,45:10
69,46:10
69,47:10
69,48:2
69,49:10
69,50:10
69,51:2
69,52:2
69,53:2
69,54:8
69,55:10
69,56:10
69,57:10
69,58:5
69,59:5
69,60:5
69,61:2
69,62:5
69,63:10
69,64:5
69,65:5
69,66:5
69,67:2
69,74:11
69,75:11
69,76:11
69,77:11
70,1:4
70,2:4
70,3:4
70,4:4
70,6:4
70,8:4
70,11:4
70,14:6
70,15:6
70,16:6
70,17:6
70,18:2
70,19:2
70,20:2
70,21:2
70,22:2
70,23:2
70,24:3
70,25:3
70,26:7
70,27:3
70,28:7
70,29:4
70,30:6
70,31:4
70,32:4
70,33:8
70,34:1
70,35:1
70,36:1
70,37:6
70,38:6
70,39:6
70,40:5
70,41:5
70,42:5
70,43:6
70,44:5
70,45:10
70,46:10
70,47:10
70,48:2
70,49:10
70,50:10
70,51:2
70,52:2
70,53:2
70,54:8
70,55:10
70,56:10
70,57:10
70,58:5
70,59:5
70,60:5
70,61:2
70,62:5
70,63:10
70,64:5
70,65:5
70,66:5
70,67:2
70,74:11
70,75:11
70,76:11
70,77:11
71,1:4
71,2:4
71,3:4
71,4:4
71,6:4
71,8:4
71,11:4
71,14:6
71,15:6
71,16:6
71,17:6
71,18:2
71,19:2
71,20:2
71,21:2
71,22:2
71,23:2
71,24:3
71,25:3
71,26:7
71,27:3
71,28:7
71,29:4
71,30:6
71,31:4
71,32:4
71,33:8
71,34:1
71,35:1
71,36:1
71,37:6
71,38:6
71,39:6
71,40:5
71,41:5
71,42:5
71,43:6
71,44:5
71,45:10
71,46:10
71,47:10
71,48:2
71,49:10
71,50:10
71,51:2
71,52:2
71,53:2
71,54:8
71,55:10
71,56:10
71,57:10
71,58:5
71,59:5
71,60:5
71,61:2
71,62:5
71,63:10
71,64:5
71,65:5
71,66:5
71,67:2
72,1:4
72,2:4
72,3:4
72,4:4
72,6:4
72,8:4
72,11:4
72,14:6
72,15:6
72,16:6
72,17:6
72,18:2
72,19:2
72,20:2
72,21:2
72,22:2
72,23:2
72,24:3
72,25:3
72,26:7
72,27:3
72,28:7
72,29:4
72,30:6
72,31:4
72,32:4
72,33:8
72,34:1
72,35:1
72,36:1
72,37:6
72,38:6
72,39:6
72,40:5
72,41:5
72,42:5
72,43:6
72,44:5
72,45:10
72,46:10
72,47:10
72,48:2
72,49:10
72,50:10
72,51:2
72,52:2
72,53:2
72,54:8
72,55:10
72,56:10
72,57:10
72,58:5
72,59:5
72,60:5
72,61:2
72,62:5
72,63:10
72,64:5
72,65:5
72,66:5
72,67:2
72,74:11
72,75:11
72,76:11
72,77:11
73,1:4
73,2:4
73,3:4
73,4:4
73,6:4
73,8:4
73,11:4
73,14:6
73,15:6
73,16:6
73,17:6
73,18:2
73,19:2
73,20:2
73,21:2
73,22:2
73,23:2
73,24:3
73,25:3
73,26:7
73,27:3
73,28:7
73,29:4
73,30:6
73,31:4
73,32:4
73,33:8
73,34:1
73,35:1
73,36:1
73,37:6
73,38:6
73,39:6
73,40:5
73,41:5
73,42:5
73,43:6
73,44:5
73,45:10
73,46:10
73,47:10
73,48:2
73,49:10
73,50:10
73,51:2
73,52:2
73,53:2
73,54:8
73,55:10
73,56:10
73,57:10
73,58:5
73,59:5
73,60:5
73,61:2
73,62:5
73,63:10
73,64:5
73,65:5
73,66:5
73,67:2
79,74:1
79,75:1
79,76:1
79,77:1
79,78:1
80,1:4
80,2:4
80,3:4
80,4:4
80,6:4
80,8:4
80,11:4
80,14:6
80,15:6
80,16:6
80,17:6
80,18:2
80,19:2
80,20:2
80,21:2
80,22:2
80,23:2
80,24:3
80,25:3
80,26:7
80,27:3
80,28:7
80,29:4
80,30:6
80,31:4
80,32:4
80,33:8
80,34:1
80,35:1
80,36:1
80,37:6
80,38:6
80,39:6
80,40:5
80,41:5
80,42:5
80,43:6
80,44:5
80,45:10
80,46:10
80,47:10
80,48:2
80,49:10
80,50:10
80,51:2
80,52:2
80,53:2
80,54:8
80,55:10
80,56:10
80,57:10
80,58:5
80,59:5
80,60:5
80,61:2
80,62:5
80,63:10
80,64:5
80,65:5
80,66:5
80,67:2
80,74:11
80,75:11
80,76:11
80,77:11
80,78:11
80,79:10
81,74:1
81,75:1
81,76:1
81,77:1
81,78:1
82,74:1
82,75:1
82,76:1
82,77:1
82,78:1
83,1:5
83,2:5
83,3:5
83,4:5
83,6:5
83,8:5
83,11:5
83,14:7
83,15:7
83,16:7
83,17:7
83,18:3
83,19:3
83,20:3
83,21:3
83,22:3
83,23:3
83,24:4
83,25:4
83,26:8
83,27:4
83,28:8
83,29:5
83,30:7
83,31:5
83,32:5
83,33:9
83,34:2
83,35:2
83,36:2
83,37:7
83,38:7
83,39:7
83,40:6
83,41:6
83,42:6
83,43:7
83,44:6
83,45:11
83,46:11
83,47:11
83,48:3
83,49:11
83,50:11
83,51:3
83,52:3
83,53:3
83,54:9
83,55:11
83,56:11
83,57:11
83,58:6
83,59:6
83,60:6
83,61:3
83,62:6
83,63:11
83,64:6
83,65:6
83,66:6
83,67:3
83,68:1
83,69:1
83,70:1
83,71:1
83,72:1
83,73:1
83,74:12
83,75:12
83,76:12
83,77:12
83,78:12
83,79:11
83,80:1
83,81:11
83,82:11
83,84:11
83,85:11
84,74:1
84,75:1
84,76:1
84,77:1
84,78:1
85,74:1
85,75:1
85,76:1
85,77:1
85,78:1
86,1:5
86,2:5
86,3:5
86,4:5
86,6:5
86,8:5
86,11:5
86,14:7
86,15:7
86,16:7
86,17:7
86,18:3
86,19:3
86,20:3
86,21:3
86,22:3
86,23:3
86,24:4
86,25:4
86,26:8
86,27:4
86,28:8
86,29:5
86,30:7
86,31:5
86,32:5
86,33:9
86,34:2
86,35:2
86,36:2
86,37:7
86,38:7
86,39:7
86,40:6
86,41:6
86,42:6
86,43:7
86,44:6
86,45:11
86,46:11
86,47:11
86,48:3
86,49:11
86,50:11
86,51:3
86,52:3
86,53:3
86,54:9
86,55:11
86,56:11
86,57:11
86,58:6
86,59:6
86,60:6
86,61:3
86,62:6
86,63:11
86,64:6
86,65:6
86,66:6
86,67:3
86,68:1
86,69:1
86,70:1
86,71:1
86,72:1
86,73:1
86,74:12
86,75:12
86,76:12
86,77:12
86,78:12
86,79:11
86,80:1
86,81:11
86,82:11
86,84:11
86,85:11
87,1:5
87,2:5
87,3:5
87,4:5
87,6:5
87,8:5
87,11:5
87,14:7
87,15:7
87,16:7
87,17:7
87,18:3
87,19:3
87,20:3
87,21:3
87,22:3
87,23:3
87,24:4
87,25:4
87,26:8
87,27:4
87,28:8
87,29:5
87,30:7
87,31:5
87,32:5
87,33:9
87,34:2
87,35:2
87,36:2
87,37:7
87,38:7
87,39:7
87,40:6
87,41:6
87,42:6
87,43:7
87,44:6
87,45:11
87,46:11
87,47:11
87,48:3
87,49:11
87,50:11
87,51:3
87,52:3
87,53:3
87,54:9
87,55:11
87,56:11
87,57:11
87,58:6
87,59:6
87,60:6
87,61:3
87,62:6
87,63:11
87,64:6
87,65:6
87,66:6
87,67:3
87,68:1
87,69:1
87,70:1
87,71:1
87,72:1
87,73:1
87,74:12
87,75:12
87,76:12
87,77:12
87,78:12
87,79:11
87,80:1
87,81:11
87,82:11
87,84:11
87,85:11
88,1:5
88,2:5
88,3:5
88,4:5
88,6:5
88,8:5
88,11:5
88,14:7
88,15:7
88,16:7
88,17:7
88,18:3
88,19:3
88,20:3
88,21:3
88,22:3
88,23:3
88,24:4
88,25:4
88,26:8
88,27:4
88,28:8
88,29:5
88,30:7
88,31:5
88,32:5
88,33:9
88,34:2
88,35:2
88,36:2
88,37:7
88,38:7
88,39:7
88,40:6
88,41:6
88,42:6
88,43:7
88,44:6
88,45:11
88,46:11
88,47:11
88,48:3
88,49:11
88,50:11
88,51:3
88,52:3
88,53:3
88,54:9
88,55:11
88,56:11
88,57:11
88,58:6
88,59:6
88,60:6
88,61:3
88,62:6
88,63:11
88,64:6
88,65:6
88,66:6
88,67:3
88,68:1
88,69:1
88,70:1
88,71:1
88,72:1
88,73:1
88,74:12
88,75:12
88,76:12
88,77:12
88,78:12
88,79:11
88,80:1
88,81:11
88,82:11
88,84:11
88,85:11
89,1:5
89,2:5
89,3:5
89,4:5
89,6:5
89,8:5
89,11:5
89,14:7
89,15:7
89,16:7
89,17:7
89,18:3
89,19:3
89,20:3
89,21:3
89,22:3
89,23:3
89,24:4
89,25:4
89,26:8
89,27:4
89,28:8
89,29:5
89,30:7
89,31:5
89,32:5
89,33:9
89,34:2
89,35:2
89,36:2
89,37:7
89,38:7
89,39:7
89,40:6
89,41:6
89,42:6
89,43:7
89,44:6
89,45:11
89,46:11
89,47:11
89,48:3
89,49:11
89,50:11
89,51:3
89,52:3
89,53:3
89,54:9
89,55:11
89,56:11
89,57:11
89,58:6
89,59:6
89,60:6
89,61:3
89,62:6
89,63:11
89,64:6
89,65:6
89,66:6
89,67:3
89,68:1
89,69:1
89,70:1
89,71:1
89,72:1
89,73:1
89,74:12
89,75:12
89,76:12
89,77:12
89,78:12
89,79:11
89,80:1
89,81:11
89,82:11
89,84:11
89,85:11

<end>

<optimal SALBP-1 value>
17


<rand seed>
467321153

